49
2 115 56 
2 68 95 
2 44 25 
2 70 19 
2 104 42 
2 101 94 
2 5 53 
2 74 14 
2 18 111 
2 75 27 
2 107 69 
2 6 93 
2 90 98 
2 17 38 
2 21 55 
2 78 116 
2 54 112 
2 72 67 
2 92 29 
2 106 43 
2 16 57 
2 83 40 
2 4 84 
2 49 36 
2 23 63 
2 79 2 
2 82 87 
2 45 26 
2 110 105 
3 80 20 103 
3 12 65 47 
2 96 30 
3 86 118 114 
3 108 34 28 
3 62 89 88 
3 81 52 7 
3 31 10 11 
2 97 77 
2 71 24 
2 102 32 
3 9 100 15 
4 91 119 85 61 
3 76 117 1 
4 41 66 120 64 
2 113 3 
4 48 73 22 33 
4 99 60 8 51 
4 46 50 59 109 
5 37 39 35 58 13 
